5	20
5 49	3 97	13 76	2 94	12 94	16 59	4 98	17 17	15 74	8 42	19 37	7 26	11 50	6 7	9 4	0 28	10 69	1 37	18 32	14 58
19 96	6 47	18 98	5 86	13 16	16 47	12 97	0 25	4 39	10 46	11 41	14 5	2 21	1 62	8 48	3 44	15 33	9 23	17 97	7 38
17 78	9 3	19 60	18 43	8 72	7 41	11 49	13 90	14 72	2 87	5 71	3 50	12 99	6 23	0 64	16 2	1 50	10 56	4 93	15 30
0 79	3 50	11 75	7 83	15 22	18 86	16 93	12 91	10 98	9 11	14 42	13 94	8 71	1 15	17 33	19 78	6 66	2 24	4 96	5 36
8 9	2 23	15 13	9 15	16 50	17 96	4 37	5 5	14 47	18 5	7 7	0 20	13 25	19 49	3 33	10 56	12 7	11 65	1 86	6 94
